13
shortest_path: 180
-1 65 67 88 87 89 29 37 51 63 13 5 38
65 -1 8 40 36 11 17 47 63 32 82 2 68
67 8 -1 20 31 70 83 48 9 11 98 88 13
88 40 20 -1 96 50 75 15 17 19 67 74 5
87 36 31 96 -1 12 85 52 29 77 12 53 49
89 11 70 50 12 -1 59 93 18 72 30 92 48
29 17 83 75 85 59 -1 64 42 92 48 80 60
37 47 48 15 52 93 64 -1 26 88 47 55 66
51 63 9 17 29 18 42 26 -1 64 100 74 79
63 32 11 19 77 72 92 88 64 -1 97 7 26
13 82 98 67 12 30 48 47 100 97 -1 71 98
5 2 88 74 53 92 80 55 74 7 71 -1 77
38 68 13 5 49 48 60 66 79 26 98 77 -1
